133065
27,8,-1,62,71,11,16,35,43,44,52,78,60,68,12,24,34,64,18,69,19,46,22,17,3,20,42,66,57,51,2,48,63,61,37,39,50,6,26,33,28,0,36,14,9,38,72,30,56,75,7,73,80,31,25,5,54,15,77,4,59,13,67,23,40,53,21,10,1,55,32,47,41,58,45,79,70,49,76,81,29,74,65,27
